NAME : mtspf.pid4281.gtsp.123480445.tour
COMMENT : Length = 123480445
COMMENT : Found by LKH [Keld Helsgaun] Thu Jan  9 11:34:17 2025
TYPE : TOUR
DIMENSION : 83
TOUR_SECTION
1
72
73
74
75
40
41
42
43
23
20
21
22
30
31
28
29
80
81
82
83
15
12
13
14
49
50
51
48
52
53
54
55
61
62
63
60
56
57
58
59
36
37
38
39
26
27
24
25
47
44
45
46
18
19
16
17
70
71
68
69
33
34
35
32
2
9
10
11
8
77
78
79
76
3
4
5
6
7
65
66
67
64
-1
EOF
